experiment/data/lkh-res/Vrp-Set-B-n66/Vrp-Set-B-n66-lkh/0.lkh1.vrp
NAME : 0
COMMENT : CVRP Instance
TYPE : CVRP
DIMENSION : 66
EDGE_WEIGHT_TYPE : EUC_2D
CAPACITY : 100
NODE_COORD_SECTION
1	4100	8800
2	5300	8300
3	8700	2800
4	4200	1100
5	2200	100
6	3400	3600
7	8400	3300
8	8100	6300
9	1100	2900
10	6200	2700
11	9000	3000
12	8400	6900
13	6900	3300
14	8900	7200
15	4500	1600
16	2800	600
17	8900	3500
18	5800	8800
19	6200	8700
20	8800	6700
21	5700	9000
22	5400	0
23	9200	7100
24	6300	8600
25	7000	3400
26	9100	3500
27	9300	3000
28	3900	4400
29	8600	3600
30	4300	1300
31	8900	4100
32	8500	7000
33	0	7200
34	1800	3900
35	9300	7600
36	9000	6500
37	8800	0
38	9100	3600
39	8700	6600
40	4500	1400
41	0	3300
42	5400	8900
43	3500	4600
44	9100	7300
45	9500	3500
46	8500	7100
47	9400	3100
48	8800	3700
49	9100	3500
50	6600	3400
51	8600	3800
52	9200	7700
53	5600	9300
54	5800	9100
55	6000	9100
56	6100	8400
57	9000	7000
58	8500	6700
59	0	6900
60	9400	3500
61	2800	500
62	8900	3700
63	9000	3400
64	9400	3200
65	9500	3500
66	1600	3200
DEMAND_SECTION
1	0
2	5
3	20
4	7
5	2
6	19
7	19
8	9
9	15
10	22
11	14
12	15
13	18
14	4
15	6
16	4
17	10
18	16
19	14
20	1
21	23
22	19
23	16
24	22
25	15
26	4
27	21
28	16
29	22
30	6
31	2
32	11
33	5
34	2
35	12
36	6
37	17
38	15
39	11
40	4
41	22
42	13
43	21
44	13
45	20
46	6
47	15
48	22
49	11
50	18
51	8
52	22
53	16
54	7
55	16
56	21
57	16
58	17
59	16
60	23
61	3
62	20
63	13
64	6
65	12
66	15
DEPOT_SECTION
1
-1
EOF
