experiment/data/lkh-res/Vrp-Set-B-n66/Vrp-Set-B-n66-lkh/0.lkh1.tour
NAME : 0.132621.tour
COMMENT : Length = 132621
COMMENT : Found by LKH-3 [Keld Helsgaun] Tue Apr  9 01:02:07 2024
TYPE : TOUR
DIMENSION : 74
TOUR_SECTION
1
2
8
45
65
60
26
49
38
70
58
39
36
20
12
56
18
42
67
34
66
9
41
59
33
71
7
3
11
27
47
64
31
74
50
13
10
6
43
73
25
37
22
5
61
16
4
30
40
15
28
72
52
35
44
23
57
14
32
46
68
53
54
55
24
19
21
69
51
48
62
63
17
29
-1
EOF
